sat
((prim_1_1 1))
((prim_1_2 2))
((x_1_1 1))
((x_1_2 1))
((x_1_3 2))
((y_1_1 0))
((y_1_2 1))
((y_1_3 1))
((vel_i_1_1 0))
((vel_i_1_2 0))
((vel_f_1_1 0))
((vel_f_1_2 0))
((x_f_1_1 0))
((x_f_1_2 1))
((y_f_1_1 1))
((y_f_1_2 0))
((cost_1_1 (/ 1823467776.0 6103515625.0)))
((cost_1_2 (/ 1823467776.0 6103515625.0)))
((total_cost (/ 3646935552.0 6103515625.0)))
